
Gurobi 10.0.1 (win64) logging started Sun Oct  8 06:17:44 2023

Set parameter LogFile to value "./results//log/FMS_06_deadline_heurTrue.log"
Gurobi Optimizer version 10.0.1 build v10.0.1rc0 (win64)

CPU model: AMD Ryzen 7 3700X 8-Core Processor, instruction set [SSE2|AVX|AVX2]
Thread count: 8 physical cores, 16 logical processors, using up to 16 threads

Optimize a model with 140 rows, 117 columns and 514 nonzeros
Model fingerprint: 0x436e794a
Model has 1 quadratic constraint
Variable types: 0 continuous, 117 integer (101 binary)
Coefficient statistics:
  Matrix range     [1e+00, 1e+07]
  QMatrix range    [1e+00, 1e+00]
  QLMatrix range   [1e+00, 4e+02]
  Objective range  [1e+00, 1e+00]
  Bounds range     [1e+00, 1e+00]
  RHS range        [1e+00, 3e+07]

User MIP start did not produce a new incumbent solution
User MIP start violates constraint initial_start_time_job0_stage0_machine0_constraint by 420.000000000

Presolve removed 36 rows and 60 columns
Presolve time: 0.00s
Presolved: 109 rows, 61 columns, 453 nonzeros
Variable types: 0 continuous, 61 integer (41 binary)

Root relaxation: objective 0.000000e+00, 24 iterations, 0.00 seconds (0.00 work units)
Another try with MIP start

    Nodes    |    Current Node    |     Objective Bounds      |     Work
 Expl Unexpl |  Obj  Depth IntInf | Incumbent    BestBd   Gap | It/Node Time

     0     0    0.00000    0    8          -    0.00000      -     -    0s
H    0     0                    1884.0000000    0.00000   100%     -    0s
     0     0    0.00000    0   14 1884.00000    0.00000   100%     -    0s
     0     0  561.80899    0   13 1884.00000  561.80899  70.2%     -    0s
     0     0  677.00000    0   28 1884.00000  677.00000  64.1%     -    0s
     0     0  677.00000    0   19 1884.00000  677.00000  64.1%     -    0s
     0     0  869.00000    0   21 1884.00000  869.00000  53.9%     -    0s
     0     0  869.00024    0   27 1884.00000  869.00024  53.9%     -    0s
     0     0  879.00483    0   26 1884.00000  879.00483  53.3%     -    0s
     0     0  924.00000    0   19 1884.00000  924.00000  51.0%     -    0s
     0     0  924.00000    0   17 1884.00000  924.00000  51.0%     -    0s
     0     0  924.00000    0   15 1884.00000  924.00000  51.0%     -    0s
     0     0  927.27324    0   20 1884.00000  927.27324  50.8%     -    0s
H    0     0                    1876.0000000  927.27324  50.6%     -    0s
     0     0  933.97110    0   20 1876.00000  933.97110  50.2%     -    0s
     0     0  989.00045    0   20 1876.00000  989.00045  47.3%     -    0s
     0     0 1247.00000    0   20 1876.00000 1247.00000  33.5%     -    0s
     0     0 1247.00000    0   16 1876.00000 1247.00000  33.5%     -    0s
     0     0 1247.00000    0   27 1876.00000 1247.00000  33.5%     -    0s
     0     0 1247.00000    0   21 1876.00000 1247.00000  33.5%     -    0s
     0     2 1247.00000    0   21 1876.00000 1247.00000  33.5%     -    0s
H  195     6                    1866.0000000 1379.50000  26.1%   4.1    0s

Cutting planes:
  Learned: 8
  Cover: 2
  Implied bound: 9
  MIR: 7
  StrongCG: 2
  Flow cover: 1
  Inf proof: 1
  RLT: 7
  Relax-and-lift: 1

Explored 227 nodes (1326 simplex iterations) in 0.21 seconds (0.03 work units)
Thread count was 16 (of 16 available processors)

Solution count 3: 1866 1876 1884 

Optimal solution found (tolerance 1.00e-04)
Best objective 1.866000000000e+03, best bound 1.866000000000e+03, gap 0.0000%
Warning: constraint name "precedence between 0,0 to 0,1 if x_[0,0,0,1,1]=0, i.e. 0,1 before 0,0" has a space
Warning: constraint name "precedence between 0,0 to 0,1 if x_[0,0,0,1,1]=0, i.e. 0,1 before 0,0" has a space
Warning: default constraint names used to write mps file
